maxSzin = 4;
orszagokSzama = 7;

szinNev = ["Black", "Yellow", "Red", "Blue"];
orszagNev = ["Belgium", "Denmark", "France", "Germany", "Netherlands", "Luxembourg", "Switzerland"];

szomszedos = [| 0, 0, 1, 1, 1, 1, 0,
               | 0, 0, 0, 1, 0, 0, 0,
               | 1, 0, 0, 1, 0, 1, 1,
               | 1, 1, 1, 0, 0, 0, 1,
               | 1, 0, 0, 0, 0, 0, 0,
               | 1, 0, 1, 0, 0, 0, 0,
               | 0, 0, 1, 1, 0, 0, 0
               |];